succeed=True
[CUDA] cuda: usage: 5.47 GB
0 :  {link #0 : 1}, {link #1 : 2}, {link #2 : 3},
1 :  {link #0 : 2}, {link #1 : 3}, {link #2 : 0},
2 :  {link #0 : 3}, {link #1 : 0}, {link #2 : 1},
3 :  {link #0 : 0}, {link #1 : 1}, {link #2 : 2},
0 :  {link #0 : 1}, {link #1 : 2}, {link #2 : 3},
1 :  {link #0 : 2}, {link #1 : 3}, {link #2 : 0},
2 :  {link #0 : 3}, {link #1 : 0}, {link #2 : 1},
3 :  {link #0 : 0}, {link #1 : 1}, {link #2 : 2},
0 :  {link #0 : 1}, {link #1 : 2}, {link #2 : 3},
1 :  {link #0 : 2}, {link #1 : 3}, {link #2 : 0},
2 :  {link #0 : 3}, {link #1 : 0}, {link #2 : 1},
3 :  {link #0 : 0}, {link #1 : 1}, {link #2 : 2},
0 : local 72, cpu 8 {link #0 : g1 24}, {link #1 : g2 24}, {link #2 : g3 24},
1 : local 72, cpu 8 {link #0 : g2 24}, {link #1 : g3 24}, {link #2 : g0 24},
2 : local 72, cpu 8 {link #0 : g3 24}, {link #1 : g0 24}, {link #2 : g1 24},
3 : local 72, cpu 8 {link #0 : g0 24}, {link #1 : g1 24}, {link #2 : g2 24},
0 : local 72, cpu 8 {link #0 : g1 24}, {link #1 : g2 24}, {link #2 : g3 24},
1 : local 72, cpu 8 {link #0 : g2 24}, {link #1 : g3 24}, {link #2 : g0 24},
2 : local 72, cpu 8 {link #0 : g3 24}, {link #1 : g0 24}, {link #2 : g1 24},
3 : local 72, cpu 8 {link #0 : g0 24}, {link #1 : g1 24}, {link #2 : g2 24},
0 : local 72, cpu 8 {link #0 : g1 24}, {link #1 : g2 24}, {link #2 : g3 24},
1 : local 72, cpu 8 {link #0 : g2 24}, {link #1 : g3 24}, {link #2 : g0 24},
2 : local 72, cpu 8 {link #0 : g3 24}, {link #1 : g0 24}, {link #2 : g1 24},
3 : local 72, cpu 8 {link #0 : g0 24}, {link #1 : g1 24}, {link #2 : g2 24},
0 :  {link #0 : 1}, {link #1 : 2}, {link #2 : 3},
1 :  {link #0 : 2}, {link #1 : 3}, {link #2 : 0},
2 :  {link #0 : 3}, {link #1 : 0}, {link #2 : 1},
3 :  {link #0 : 0}, {link #1 : 1}, {link #2 : 2},
0 : local 72, cpu 8 {link #0 : g1 24}, {link #1 : g2 24}, {link #2 : g3 24},
1 : local 72, cpu 8 {link #0 : g2 24}, {link #1 : g3 24}, {link #2 : g0 24},
2 : local 72, cpu 8 {link #0 : g3 24}, {link #1 : g0 24}, {link #2 : g1 24},
3 : local 72, cpu 8 {link #0 : g0 24}, {link #1 : g1 24}, {link #2 : g2 24},
Set parameter WLSAccessID
Set parameter WLSSecret
Set parameter LicenseID
Set parameter TimeLimit to value 200
Set parameter MIPGap to value 0.05
Set parameter LogFile to value "cppsolver.log"
Set parameter Threads to value 40
Academic license - for non-commercial use only - registered to xiaoniu.sxn@sjtu.edu.cn
Gurobi Optimizer version 9.5.1 build v9.5.1rc2 (linux64)
Thread count: 40 physical cores, 80 logical processors, using up to 40 threads
Academic license - for non-commercial use only - registered to xiaoniu.sxn@sjtu.edu.cn
Optimize a model with 6216 rows, 2028 columns and 19064 nonzeros
Model fingerprint: 0xf7fea2a4
Variable types: 5 continuous, 2023 integer (2023 binary)
Coefficient statistics:
  Matrix range     [8e-09, 7e+04]
  Objective range  [1e+00, 1e+00]
  Bounds range     [1e+00, 1e+00]
  RHS range        [1e+00, 2e+04]
Warning: Model contains large matrix coefficient range
         Consider reformulating model or setting NumericFocus parameter
         to avoid numerical issues.
Found heuristic solution: objective 107998.93892
Presolve removed 4836 rows and 566 columns
Presolve time: 0.01s
Presolved: 1380 rows, 1462 columns, 4128 nonzeros
Variable types: 0 continuous, 1462 integer (1462 binary)
Found heuristic solution: objective 99249.121053

Root relaxation: objective 7.890595e+04, 1022 iterations, 0.01 seconds (0.00 work units)

    Nodes    |    Current Node    |     Objective Bounds      |     Work
 Expl Unexpl |  Obj  Depth IntInf | Incumbent    BestBd   Gap | It/Node Time

     0     0 78905.9514    0   25 99249.1211 78905.9514  20.5%     -    0s
H    0     0                    80819.227850 78905.9514  2.37%     -    0s

Explored 1 nodes (1575 simplex iterations) in 0.04 seconds (0.03 work units)
Thread count was 40 (of 80 available processors)

Solution count 3: 80819.2 99249.1 107999 

Optimal solution found (tolerance 5.00e-02)
Best objective 8.081922784996e+04, best bound 7.890595135366e+04, gap 2.3674%
coll_cache:optimal_local_rate=0.0881772,0.0839473,0.107224,0.100672,
coll_cache:optimal_remote_rate=0.263755,0.267985,0.244709,0.25126,
coll_cache:optimal_cpu_rate=0.648068,0.648068,0.648068,0.648068,
z=80819.2
test_result:init:feat_nbytes=67182966784
test_result:init:cache_nbytes=739012608
test_result:init:feat_nbytes=67182966784
test_result:init:cache_nbytes=739012608
test_result:init:feat_nbytes=67182966784
test_result:init:cache_nbytes=739012608
test_result:init:feat_nbytes=67182966784
test_result:init:cache_nbytes=739012608
    [Step(average) Profiler Level 1 E3 S999]
        L1  sample           0.004086 | send           0.000000
        L1  recv             0.000000 | copy           0.068185 | convert time 0.000000 | train  0.013315
        L1  feature nbytes    1.19 GB | label nbytes 0.00 Bytes
        L1  id nbytes      0.00 Bytes | graph nbytes 0.00 Bytes
        L1  miss nbytes     791.21 MB | remote nbytes  309.63 MB
        L1  num nodes               0 | num samples           0
        L1  seq duration     0.000000 | refresh duration   0.000000
    [Step(average) Profiler Level 2 E3 S999]
        L2  shuffle     0.000000 | core sample  0.000000 | id remap        0.000000
        L2  graph copy  0.000000 | id copy      0.000000 | cache feat copy 0.068185
        L2  last layer sample time 0.000000 | size 0.000000
    [Step(average) Profiler Level 3 E3 S999]
        L3  khop sample coo  0.000000 | khop sort coo      0.000000 | khop count edge     0.000000 | khop compact edge 0.000000
        L3  walk sample coo  0.000000 | walk topk total    0.000000 | walk topk step1     0.000000 | walk topk step2   0.000000
        L3  walk topk step3  0.000000 | walk topk step4    0.000000 | walk topk step5     0.000000
        L3  walk topk step6  0.000000 | walk topk step7    0.000000
        L3  remap unique     0.000000 | remap populate     0.000000 | remap mapnode       0.000000 | remap mapedge     0.000000
        L3  cache get_index  0.000721 | cache copy_index   0.000000 | cache extract_miss  0.000000
        L3  cache copy_miss  0.000000 | cache combine_miss 0.067415 | cache combine cache 0.000429 | cache combine remote 0.002741
        L3  label extract  0.000000
    [Profiler Level Percentiles E3 S999]
        p50.00_tail_logl2featcopy=0.067500
        p90.00_tail_logl2featcopy=0.073027
        p95.00_tail_logl2featcopy=0.073209
        p99.00_tail_logl2featcopy=0.073527
        p99.90_tail_logl2featcopy=0.074053
[CUDA] cuda: usage: 11.47 GB
Rank=3, Graph loaded.
!!!!dist_homo_graph enumerate latency per epoch: 0.009416, per step: 0.000038
presamping
presamping takes 14.313357830047607
Rank=1, Graph loaded.
!!!!dist_homo_graph enumerate latency per epoch: 0.010938, per step: 0.000044
presamping
presamping takes 15.998605728149414
config:eval_tsp="2023-04-14 18:00:20"
config:num_worker=4
config:num_intra_size=4
config:root_dir=/nvme/songxiaoniu/graph-learning/wholegraph
config:graph_name=com-friendster
config:epochs=4
config:batchsize=2000
config:skip_epoch=2
config:local_step=250
config:presc_epoch=2
config:neighbors=10,25
config:hiddensize=256
config:num_layer=2
config:model=sage
config:framework=dgl
config:dataloaderworkers=0
config:dropout=0.5
config:lr=0.003
config:use_nccl=False
config:use_amp=True
config:use_collcache=True
config:cache_percentage=0.01
config:cache_policy=coll_cache_asymm_link
config:omp_thread_num=40
config:unsupervised=True
config:classnum=100
config:global_barrier=<multiprocessing.synchronize.Barrier object at 0x7f7f2d10d460>
config:worker_id=0
creating_intra_node_communicator root=0, local_size=4, world_size=4
Rank=0, Graph loaded.
!!!!dist_homo_graph enumerate latency per epoch: 0.010563, per step: 0.000042
epoch=4 total_steps=1000
presamping
presamping takes 11.999260663986206
start training...
[Epoch 0], time=22.588218212127686, loss=0.6931472420692444
[Epoch 1], time=21.40214252471924, loss=0.6931472420692444
[Epoch 2], time=21.413283109664917, loss=0.6931472420692444
[Epoch 3], time=21.41718626022339, loss=0.6931472420692444
|===========================================================================|
|                  PyTorch CUDA memory summary, device ID 0                 |
|---------------------------------------------------------------------------|
|            CUDA OOMs: 0            |        cudaMalloc retries: 0         |
|===========================================================================|
|        Metric         | Cur Usage  | Peak Usage | Tot Alloc  | Tot Freed  |
|---------------------------------------------------------------------------|
| Allocated memory      |   82039 KB |     771 MB |    1648 GB |    1648 GB |
|       from large pool |   74719 KB |     765 MB |    1631 GB |    1631 GB |
|       from small pool |    7319 KB |       8 MB |      16 GB |      16 GB |
|---------------------------------------------------------------------------|
| Active memory         |   82039 KB |     771 MB |    1648 GB |    1648 GB |
|       from large pool |   74719 KB |     765 MB |    1631 GB |    1631 GB |
|       from small pool |    7319 KB |       8 MB |      16 GB |      16 GB |
|---------------------------------------------------------------------------|
| GPU reserved memory   |    2070 MB |    2070 MB |    2070 MB |       0 B  |
|       from large pool |    2058 MB |    2058 MB |    2058 MB |       0 B  |
|       from small pool |      12 MB |      12 MB |      12 MB |       0 B  |
|---------------------------------------------------------------------------|
| Non-releasable memory |   38793 KB |  711646 KB |    1429 GB |    1429 GB |
|       from large pool |   35872 KB |  708081 KB |    1411 GB |    1411 GB |
|       from small pool |    2920 KB |    6382 KB |      17 GB |      17 GB |
|---------------------------------------------------------------------------|
| Allocations           |      58    |      74    |  204817    |  204759    |
|       from large pool |      12    |      22    |   62531    |   62519    |
|       from small pool |      46    |      57    |  142286    |  142240    |
|---------------------------------------------------------------------------|
| Active allocs         |      58    |      74    |  204817    |  204759    |
|       from large pool |      12    |      22    |   62531    |   62519    |
|       from small pool |      46    |      57    |  142286    |  142240    |
|---------------------------------------------------------------------------|
| GPU reserved segments |      20    |      20    |      20    |       0    |
|       from large pool |      14    |      14    |      14    |       0    |
|       from small pool |       6    |       6    |       6    |       0    |
|---------------------------------------------------------------------------|
| Non-releasable allocs |      24    |      38    |   73306    |   73282    |
|       from large pool |       7    |      18    |   37251    |   37244    |
|       from small pool |      17    |      26    |   36055    |   36038    |
|---------------------------------------------------------------------------|
| Oversize allocations  |       0    |       0    |       0    |       0    |
|---------------------------------------------------------------------------|
| Oversize GPU segments |       0    |       0    |       0    |       0    |
|===========================================================================|

[TRAIN_TIME] train time is 86.822322 seconds
[EPOCH_TIME] 21.705580 seconds, maybe large due to not enough epoch skipped.
[EPOCH_TIME] 21.415346 seconds
Rank=2, Graph loaded.
!!!!dist_homo_graph enumerate latency per epoch: 0.009494, per step: 0.000038
presamping
presamping takes 15.89196491241455

